100 100
24 80 1
3 68 1
75 62 1
12 41 1
5 70 1
24 69 1
13 68 1
40 99 1
48 69 1
8 19 1
12 9 1
29 78 1
3 76 1
3 96 1
22 24 1
30 49 1
19 91 1
10 87 1
44 66 1
42 94 1
98 20 1
28 86 1
28 93 1
17 97 1
37 75 1
57 90 1
24 94 1
2 73 1
38 80 1
50 12 1
31 67 1
50 93 1
1 92 1
3 97 1
50 84 1
9 85 1
26 78 1
78 40 1
30 74 1
30 86 1
74 10 1
45 98 1
22 72 1
13 95 1
10 74 1
33 76 1
76 68 1
7 77 1
20 85 1
89 46 1
91 90 1
13 67 1
41 68 1
45 92 1
19 81 1
30 66 1
74 92 1
68 91 1
7 76 1
10 72 1
19 95 1
53 56 1
8 80 1
50 87 1
25 68 1
50 33 1
20 92 1
3 75 1
43 84 1
9 81 1
44 78 1
17 8 1
81 12 1
29 81 1
29 71 1
43 75 1
14 71 1
60 84 1
26 73 1
31 87 1
17 76 1
4 8 1
35 82 1
79 60 1
32 90 1
9 95 1
69 50 1
41 67 1
8 77 1
75 89 1
38 91 1
13 5 1
96 60 1
4 99 1
87 36 1
48 19 1
45 76 1
96 18 1
37 98 1
43 97 1
100 100 
100 100 
100 100 
100 100 
100 100 
100 100 
100 100 
100 100 
100 100 
100 100 
100 100 
100 100 
100 100 
100 100 
100 100 
100 100 
100 100 
100 100 
100 100 
100 100 
100 100 
100 100 
100 100 
100 100 
100 100 
100 100 
100 100 
100 100 
100 100 
100 100 
100 100 
100 100 
100 100 
100 100 
100 100 
100 100 
100 100 
100 100 
100 100 
100 100 
100 100 
100 100 
100 100 
100 100 
100 100 
100 100 
100 100 
100 100 
100 100 
100 100 
100 100 
100 100 
100 100 
100 100 
100 100 
100 100 
100 100 
100 100 
100 100 
100 100 
100 100 
100 100 
100 100 
100 100 
100 100 
100 100 
100 100 
100 100 
100 100 
100 100 
100 100 
100 100 
100 100 
100 100 
100 100 
100 100 
100 100 
100 100 
100 100 
100 100 
100 100 
100 100 
100 100 
100 100 
100 100 
100 100 
100 100 
100 100 
100 100 
100 100 
100 100 
100 100 
100 100 
100 100 
100 100 
100 100 
100 100 
100 100 
100 100 
100 100 
